33D32945 STP File, STP Format Version 1.0

SECTION Comments
Name "shell_n13_d3_s27"
Problem "Euclidean Steiner Tree Problem"
Remark "Generated with STPGenerator. 3 dimensions."
END

SECTION Graph
Nodes 13
END

SECTION Coordinates
DDD 0 -0.8765116695 0.4601946870 -0.1412378960
DDD 1 0.6996369535 -0.1851983054 0.6900795034
DDD 2 -0.6570692478 0.6137827712 -0.4376422206
DDD 3 -0.5528955743 -0.3831986179 -0.7399089830
DDD 4 -0.3285479996 0.9167941191 0.2270347005
DDD 5 -0.8483973448 -0.4618267711 -0.2587237501
DDD 6 0.6567855140 -0.6232271788 0.4245240538
DDD 7 0.4216124879 0.8724815779 -0.2470198500
DDD 8 -0.9858294037 0.1635112310 0.0374761800
DDD 9 -0.6627680790 0.4298122553 -0.6131883061
DDD 10 0.6038592574 -0.3504621654 0.7159121928
DDD 11 -0.5624399721 0.6933647413 -0.4504515660
DDD 12 0.9207450656 -0.3152288052 0.2299115582
END
